10J3M/DAT/10J3MUNX-13.dat
10 3
39.0143 6.2461
32.8293 5.7297
46.6951 6.8334
19.3056 4.3938
33.8405 5.8173
44.6472 6.6819
21.3196 4.6173
3.2424 1.8007
8.5894 2.9308
3.7223 1.9293
46.9803