10J3M/SOL/10J3MUNX-13.sol
solution status: optimal solution found
objective value:                     62.8525666666666
x#1#1                                               1 	(obj:0)
x#2#1                                               1 	(obj:0)
x#3#1                                               1 	(obj:0)
x#4#2                               0.125167543733781 	(obj:0)
x#4#3                               0.874832456266219 	(obj:0)
x#5#1                                               1 	(obj:0)
x#6#3                                               1 	(obj:0)
x#7#2                                               1 	(obj:0)
x#8#2                                               1 	(obj:0)
x#9#1                               0.794618517022922 	(obj:0)
x#9#2                               0.205381482977078 	(obj:0)
x#10#2                                              1 	(obj:0)
z                                    62.8525666666666 	(obj:1)
